50
    1    25    15
    2    62    52
    3    74    64
    4    70    60
    5    84    74
    6    44    34
    7   105    95
    8    84    74
    9    58    48
   10    89    79
   11    47    37
   12    17     7
   13    39    29
   14    73    63
   15    53    43
   16    55    45
   17    71    61
   18    54    44
   19    88    78
   20    74    64
   21    65    55
   22    19     9
   23    93    83
   24    67    57
   25    26    16
   26    15     5
   27    94    84
   28    82    72
   29    38    28
   30    23    13
   31    38    28
   32    36    26
   33    35    25
   34    98    88
   35    50    40
   36    42    32
   37    99    89
   38    22    12
   39    40    30
   40    49    39
   41    63    53
   42    85    75
   43    33    23
   44    91    81
   45    86    76
   46    36    26
   47    64    54
   48    68    58
   49    50    40
   50    33    23
2005
